INPUT_PARAMETERS
#Parameters     (General)
pseudo_dir                      ../../../tests/PP_ORB
orbital_dir                     ../../../tests/PP_ORB
calculation                     scf      
nbands                          16
#Parameters (Methos)
basis_type                      lcao
symmetry                        0       
#Parameters (Accuracy)
ecutwfc                          60 ### Please refer to orbital files[1] to set ecutwfc for LCAO basis.
scf_thr                         1.0e-7  // about iteration
scf_nmax			100
#Parameters (File)
gamma_only			1
out_dm                         1


### [1]The energy cutoff of a LCAO basis can be found in lines starting with "Energy Cutoff" of a .orb file.
