INPUT_PARAMETERS
#Parameters     (General)
pseudo_dir                      ../../../tests/PP_ORB
orbital_dir                     ../../../tests/PP_ORB
calculation                     scf      
nbands                          16
#Parameters (Methos)
basis_type                      lcao
symmetry                        0       
#Parameters (Accuracy)
ecutwfc                          60 ###Energy cutoff needs to be tested to ensure your calculation is reliable.[1]
scf_thr                         1.0e-7  // about iteration
scf_nmax			100
#Parameters (File)
gamma_only			1
out_dm                         1


### [1] Energy cutoff determines the quality of numerical quadratures in your calculations.
###     So it is strongly recommended to test whether your result (such as converged SCF energies) is
###     converged with respect to the energy cutoff.
