INPUT_PARAMETERS
suffix         autotest
#nbands   40 

calculation    scf
ecutwfc         60 ###Energy cutoff needs to be tested to ensure your calculation is reliable.[1]
scf_thr            1.0e-8
scf_nmax          50
out_chg     0

mixing_type    broyden


ks_solver     pexsi
pexsi_temp    0.1
pexsi_npole   80
basis_type    lcao
gamma_only    1 ### Abacus will generate/overwrite a KPT file when gamma_only is set to 1.
symmetry      0
nspin         2
pseudo_dir	../../../tests/PP_ORB
orbital_dir	../../../tests/PP_ORB


### [1] Energy cutoff determines the quality of numerical quadratures in your calculations.
###     So it is strongly recommended to test whether your result (such as converged SCF energies) is
###     converged with respect to the energy cutoff.
