ATOMIC_SPECIES
Si 28 Si_ONCV_PBE-1.0.upf upf201

LATTICE_CONSTANT
10  // add lattice constant

LATTICE_VECTORS
0.0 0.5 0.5
0.5 0.0 0.5
0.5 0.5 0.0

ATOMIC_POSITIONS
Direct 

Si	// Element type	
0.0	// magnetism
2	
0.00 0.00 0.00 1 1 1
0.25 0.25 0.20 1 1 1
