ATOMIC_SPECIES
Si 1 Si_ONCV_PBE-1.0.upf

NUMERICAL_ORBITAL
Si_gga_8au_60Ry_2s2p1d.orb

LATTICE_CONSTANT
10.2

LATTICE_VECTORS
0 0.5 0.5 #latvec1
0.5 0 0.5 #latvec2
0.5 0.5 0 #latvec3

ATOMIC_POSITIONS
Cartesian

Si #label
0 #magnetism
2 #number of atoms
0  0  0  m  1  1  1  v  -9.72286664918e-05  -0.000124431257998  -3.34995123293e-05
0.250999999999  0.255  0.241  m  1  1  1  v  9.72286664918e-05  0.000124431257998  3.34995123293e-05