INPUT_PARAMETERS
#Parameters     (General)
pseudo_dir                      ../../../tests/PP_ORB
calculation                     scf    
symmetry                        0
#Parameters (Methos)
basis_type                      pw
ecutwfc                          60 ###Energy cutoff needs to be tested to ensure your calculation is reliable.[1]
scf_thr                         1.0e-8  // about iteration
scf_nmax			100
smearing_method         	gauss
smearing_sigma          	0.01
#Parameters (File)
out_wfc_pw                         1
out_wfc_r			1


### [1] Energy cutoff determines the quality of numerical quadratures in your calculations.
###     So it is strongly recommended to test whether your result (such as converged SCF energies) is
###     converged with respect to the energy cutoff.
