INPUT_PARAMETERS
pseudo_dir              	../../../tests/PP_ORB
calculation             	scf
ecutwfc                       	 60 ###Energy cutoff needs to be tested to ensure your calculation is reliable.[1]
scf_thr                         1e-08
scf_nmax                        100
basis_type                    	pw
latname				so


### [1] Energy cutoff determines the quality of numerical quadratures in your calculations.
###     So it is strongly recommended to test whether your result (such as converged SCF energies) is
###     converged with respect to the energy cutoff.
