ATOMIC_SPECIES
Ce 140.115 58_Ce.UPF upf201

LATTICE_CONSTANT
6

LATTICE_VECTORS
0.0 0.5 0.5
0.5 0.0 0.5
0.5 0.5 0.0

ATOMIC_POSITIONS
Direct

Ce
0.0
1
0.00 0.00 0.00 1 1 1
