INPUT_PARAMETERS
#Parameters	(General)
calculation     scf
esolver_type    sdft
pseudo_dir              ../../../tests/PP_ORB
nbands			4
nbands_sto      64
nche_sto        100
method_sto      1
#Parameters (Accuracy)
ecutwfc			 60 ###Energy cutoff needs to be tested to ensure your calculation is reliable.[1]
scf_nmax		20
symmetry		1
#Parameters (Smearing)
smearing_method     fd
smearing_sigma      0.6


### [1] Energy cutoff determines the quality of numerical quadratures in your calculations.
###     So it is strongly recommended to test whether your result (such as converged SCF energies) is
###     converged with respect to the energy cutoff.
