INPUT_PARAMETERS 
#Parameters (1.General)
suffix           autotest
calculation      scf
                 
#nbands			 8
symmetry         1
                 
#Parameters (2.Iteration)
ecutwfc          50
scf_thr          1e-5
scf_nmax         100
cal_force        0
cal_stress       0
#Parameters (3.Basis)
basis_type       lcao
                 
#Parameters (4.Smearing)
smearing_method  gauss
smearing_sigma   0.002
                 
#Parameters (5.Mixing)
mixing_type      broyden
mixing_gg0       0
#mixing_beta      0.3
#gamma_only       1
ks_solver        genelpa

#Parameters (6.rdmft)
rdmft               1
#dft_functional      cwp22
#exx_hse_omega       0.33
#rdmft_power_alpha   0.656
