INPUT_PARAMETERS
#Parameters	(General)
pseudo_dir		../../../tests/PP_ORB
orbital_dir		../../../tests/PP_ORB
#Parameters (Accuracy)
ecutwfc			 60 ### Please refer to orbital files[1] to set ecutwfc for LCAO basis.
scf_nmax		100
scf_thr                 1e-6
basis_type		lcao

gamma_only 1 ### Abacus will generate KPT file when gamma_only=1.

smearing_method gauss
smearing_sigma 0.02


### [1]The energy cutoff of a LCAO basis can be found in lines starting with "Energy Cutoff" of a .orb file.
