INPUT_PARAMETERS
suffix    autotest

#nbands   40

calculation   scf
ecutwfc       20
scf_thr           1.0e-6
scf_nmax         50
out_chg    0

#init_chg    file
#out_dos      1
#dos_sigma    0.05
#out_band     1
noncolin	1
smearing_method    gaussian
smearing_sigma       0.02

mixing_type    broyden 
mixing_beta    0.2
mixing_ndim 10

ks_solver     dav_subspace
diago_smooth_ethr true
pw_diag_ndim  2
basis_type    pw
symmetry      0
cal_force     1
cal_stress    1
pseudo_dir	../../PP_ORB
orbital_dir	../../PP_ORB
