INPUT_PARAMETERS
pseudo_dir              ../../../tests/PP_ORB
orbital_dir             ../../../tests/PP_ORB
nbands                  5
nspin                   1
calculation             scf
basis_type              lcao
ks_solver               genelpa
ecutwfc                 100 ###Energy cutoff needs to be tested to ensure your calculation is reliable.[1]
scf_thr                 1e-8
scf_nmax                100
gamma_only              0
symmetry                1
smearing_method         gauss
mixing_type             broyden
mixing_beta             0.4

dft_functional          hse


### [1] Energy cutoff determines the quality of numerical quadratures in your calculations.
###     So it is strongly recommended to test whether your result (such as converged SCF energies) is
###     converged with respect to the energy cutoff.
