INPUT_PARAMETERS
#Parameters (1.General)
suffix                  abacus
pseudo_dir              ../../../tests/PP_ORB
orbital_dir                 ../../../tests/PP_ORB
calculation             scf
symmetry                0

#Parameters (2.Iteration)
ecutwfc                 100 ### Please refer to orbital files[1] to set ecutwfc for LCAO basis.
scf_thr                     1e-7
scf_nmax                   50

#Parameters (3.Basis)
basis_type             lcao 
kspacing               0.1 ### Abacus will generate KPT file when kspacing is used.

#Parameters (4.Smearing)
smearing_method                gaussian
smearing_sigma                   0.015

#Parameters (5.Mixing)
mixing_type             broyden
mixing_beta             0.4

#Parameters (6.Deepks)
deepks_scf	1
deepks_model	model.ptg

#Parameters (7.SOC)
lspinorb 1



### [1]The energy cutoff of a LCAO basis can be found in lines starting with "Energy Cutoff" of a .orb file.
