INPUT_PARAMETERS
pseudo_dir              ../../../tests/PP_ORB
orbital_dir                 ../../../tests/PP_ORB
nbands		24

calculation	scf
ecutwfc		120 ### Please refer to orbital files[1] to set ecutwfc for LCAO basis.
scf_thr		1.0e-8
scf_nmax		100

smearing_method	gaussian
smearing_sigma		0.02

mixing_type	broyden
mixing_beta	0.4

basis_type	lcao
gamma_only	0
symmetry	1


### [1]The energy cutoff of a LCAO basis can be found in lines starting with "Energy Cutoff" of a .orb file.
