INPUT_PARAMETERS
#Parameters (1.General)
suffix			autotest
calculation     scf
device          gpu
gamma_only      1  # GPU acceleration currently only support gamma_only set to 1. ### Abacus will generate KPT file when gamma_only=1.
ks_solver		cusolver  # if not set, the default ks_solver is cusolver,
                          # you can also choose genelpa or scalapack_gvx.

#nbands			8
symmetry		1

#Parameters (2.Iteration)
ecutwfc			100 ### Please refer to orbital files[1] to set ecutwfc for LCAO basis.
scf_thr		    1e-6
scf_nmax		100
cal_force       1
cal_stress      1

#Parameters (3.Basis)
basis_type		lcao

#Parameters (4.Smearing)
smearing_method		gauss
smearing_sigma		0.015

#Parameters (5.Mixing)
mixing_type		broyden
mixing_beta		0.3


### [1]The energy cutoff of a LCAO basis can be found in lines starting with "Energy Cutoff" of a .orb file.
