INPUT_PARAMETERS
suffix      test
ntype       1
nbands      200
pseudo_dir          ../../../tests/PP_ORB
orbital_dir         ../../../tests/PP_ORB

calculation scf
mixing_beta 0.4
basis_type  lcao
gamma_only  1 ### Abacus will generate/overwrite a KPT file when gamma_only is set to 1.
symmetry    0

ecutwfc     60 ###Energy cutoff needs to be tested to ensure your calculation is reliable.[1]
lcao_dr         1e-3
scf_nmax	      20

ks_solver   pexsi

pexsi_npole  40

### [1] Energy cutoff determines the quality of numerical quadratures in your calculations.
###     So it is strongly recommended to test whether your result (such as converged SCF energies) is
###     converged with respect to the energy cutoff.
