INPUT_PARAMETERS
#Parameters (1.General)
suffix			autotest
calculation     scf
nbands			16
symmetry		1
pseudo_dir	../../../tests/PP_ORB
orbital_dir	../../../tests/PP_ORB
gamma_only      1 ### Abacus will generate KPT file when gamma_only=1.

#Parameters (2.Iteration)
ecutwfc			 60 ### Please refer to orbital files[1] to set ecutwfc for LCAO basis.
scf_thr				1e-8
scf_nmax			100


#Parameters (3.Basis)
basis_type		lcao

#Parameters (4.Smearing)
smearing_method		gauss
smearing_sigma			0.015

out_mat_hs                  1

#Parameters (5.Mixing)
mixing_type		broyden
mixing_beta		0.7
mixing_gg0      1.5

ks_solver       genelpa


### [1]The energy cutoff of a LCAO basis can be found in lines starting with "Energy Cutoff" of a .orb file.
