INPUT_PARAMETERS
pseudo_dir	  ../../../tests/PP_ORB
dft_functional    pbe
symmetry	  0
cal_force	  1
calculation       scf
ecutwfc		  60 ###Energy cutoff needs to be tested to ensure your calculation is reliable.[1]
scf_nmax	  200
scf_thr		  1.0e-7
basis_type	  pw
gamma_only        1 ### Abacus will generate/overwrite a KPT file when gamma_only is set to 1.
smearing_method	  gauss
smearing_sigma	  0.015
mixing_type       broyden
mixing_beta       0.1

#Parameters (electric field)
efield_flag         1
dip_cor_flag        0
efield_pos_max      0.8
efield_pos_dec      0.1
efield_amp          0.005


### [1] Energy cutoff determines the quality of numerical quadratures in your calculations.
###     So it is strongly recommended to test whether your result (such as converged SCF energies) is
###     converged with respect to the energy cutoff.
