INPUT_PARAMETERS
#Parameters	(General)
pseudo_dir              ../../../tests/PP_ORB	
calculation		scf
#Parameters (Accuracy)
ecutwfc			 60 ###Energy cutoff needs to be tested to ensure your calculation is reliable.[1]
scf_thr         	1e-8
scf_nmax		20
basis_type		pw
latname			fcc


### [1] Energy cutoff determines the quality of numerical quadratures in your calculations.
###     So it is strongly recommended to test whether your result (such as converged SCF energies) is
###     converged with respect to the energy cutoff.
