INPUT_PARAMETERS
#Parameters	(General)
pseudo_dir          ../../../tests/PP_ORB
nbands              8
calculation         scf
symmetry            1

#Parameters (3.PW)
basis_type 		pw
ecutwfc             	60 ###Energy cutoff needs to be tested to ensure your calculation is reliable.[1]
scf_thr                 1e-8
scf_nmax               	100

cal_force              1



### [1] Energy cutoff determines the quality of numerical quadratures in your calculations.
###     So it is strongly recommended to test whether your result (such as converged SCF energies) is
###     converged with respect to the energy cutoff.
